   1358 35
   1445 36
   1560 37
   1608 38
   1760 39
   1858 40
   1826 41
   1898 42
   1965 43
   1972 44
   1961 45
   2134 46
   2126 47
   2154 48
   2112 49
   2211 50
   2215 51
   2338 52
   2418 53
   2540 54
   2560 55
   2704 56
   2746 57
   2996 58
   3190 59
   3402 60
   3571 61
   3763 62
   3678 63
   4049 64
   4184 65
   4655 66
   4785 67
   5025 68
   5490 69
   5876 70
   6300 71
   6770 72
   7232 73
   7564 74
   7843 75
   8328 76
   9392 77
   9563 78
  10350 79
  10353 80
  11329 81
  11664 82
  12533 83
  13324 84
  14262 85
  15484 86
  15905 87
  16878 88
  17685 89
  18779 90
  20149 91
  20948 92
  21893 93
  23213 94
  25275 95
  36014 96
  71760 97
 232314 98
  38530 99
 327158 100
10649363 101
